c array.sh: path:     /home/seidl/data/parity/parity60.qdimacs
c array.sh: name:     parity60
c array.sh: task:     6
c array.sh: host:     c3n03
c array.sh: uname:    Linux c3n03 4.15.0-135-generic #139-Ubuntu SMP Mon Jan 18 17:38:24 UTC 2021 x86_64 x86_64 x86_64 GNU/Linux
c array.sh: start:    Tue Feb 16 22:30:17 CET 2021
c array.sh: noturbo:  1
c array.sh: governor: 32 performance
c array.sh: tmp:      1%
c array.sh: unzipped: /tmp/local-unzipped-18834717-6-parity60.cnf
using tmp directory:
  /tmp
running QBF solver...

/home/seidl/cert_tests/bin/ferp-models/ijtihad/ijtihad --dependencies=0 --wit_per_call=-1 --cex_per_call=-1 --log_phi=/tmp/ferpcert3064expanded.cnf /tmp/local-unzipped-18834717-6-parity60.cnf
c Options after parsing: 
c cex_per_call = 18446744073709551615
c wit_per_call = 18446744073709551615
c warmup = 1
c warmup_randoms = 0
c trimming_phi = 0
c trimming_ksi = 2
c trimming_interval = 200
c memory_limit = 3000000
c MySolverv970-glucose
-1 
1 
c Number of calls is: 0
c Layers in PHI: 0
c Layers in KSI: 0
c Running Ijtihad loop
c sat_solver_phi calld 0 times, running for 0.014266 seconds.
c number of layers in PHI is 2
c sat_solver_ksi was running for 0 seconds.
c number of layers in KSI is 0
c mysolver was running for 0.014267 seconds.
s cnf 0
solving done with exit code 20

QBF solver OK

running SAT Solver...

/tmp/ferpcert3064expanded.cnf
s UNSATISFIABLE

PROOF GENERATION OK

checking unsat proof

resolved 1 root and 1 empty clause
trace-size2: 172388

TRACE CHECK OK

running toferp...

ferp-size: 177130
TOFERP OK

checking FERP PROOF...

FERP CHECK OK

extracting AIG ...

aig-size: 6606377
aig-header: aag 323947 119 0 1 323828
FERP CERT OK

merging  AIG into QBF ...

CERTCHECK OK

merged-cnf-header: p cnf 324779 973619
merged-cnf-size: 18304714
running SAT solver...

c ---- [ banner ] ------------------------------------------------------------
c
c KISSAT SAT Solver
c Copyright (c) 2019-2020 Armin Biere JKU Linz
c 
c Version 1.0.3 59813addcacc4d6fb880ebdd63685600475aa940
c gcc (Ubuntu 7.5.0-3ubuntu1~18.04) 7.5.0 -W -Wall -O3 -DNEMBEDDED -DNDEBUG -DNMETRICS -DNSTATISTICS
c Sun Feb 14 23:58:54 CET 2021 Linux cluster3 4.15.0-135-generic x86_64
c
c ---- [ parsing ] -----------------------------------------------------------
c
c opened and reading DIMACS file:
c 
c   /tmp/ferpcert_merged_cnf3064.cnf
c 
c parsed 'p cnf 324779 973619' header
c closing input after reading 18304714 bytes (17 MB)
c finished parsing after 0.26 seconds
c
c ---- [ solving ] -----------------------------------------------------------
c
c  seconds reductions redundant irredundant
c         MB   restarts    trail       variables
c          level  conflicts   glue           remaining
c
c *  0.26 48 0  0  0   0   0 0% 0 973617 324183 100%
c {  0.26 48 0  0  0   0   0 0% 0 973617 324183 100%
c i  0.33 54 96  0  0  67  64 61% 3 973617 324182 100%
c i  0.38 54 162  0  0 208 199 32% 3 973617 324180 100%
c i  0.39 54 191  0  0 245 230 33% 3 973617 324179 100%
c i  0.40 54 203  0  0 272 256 33% 3 973617 324178 100%
c -  0.43 55 211  1  0 302 271 33% 3 972651 324178 100%
c i  0.44 55 167  1  5 379 339 26% 3 972651 324173 100%
c i  0.47 55 157  1  5 415 372 25% 3 972651 324172 100%
c i  0.48 55 151  1  5 433 389 24% 3 972651 324170 100%
c i  0.48 55 144  1  5 445 400 23% 3 972651 324169 100%
c i  0.49 55 126  1  5 493 445 21% 3 972651 324166 100%
c i  0.50 55 111  1  5 556 501 19% 3 972651 324165 100%
c i  0.53 55 89  1  9 703 625 15% 3 972651 324164 100%
c -  0.59 55 74  2  9 903 769 16% 3 972615 324164 100%
c i  0.61 55 75  2  9 952 810 17% 3 972615 324162 100%
c i  0.61 55 76  2  9 955 811 17% 3 972615 324153 100%
c }  0.64 55 80  2  9 1001 845 18% 3 972615 324153 100%
c [  0.64 55 0  2  9 1001 845 0% 0 972615 324153 100%
c O  0.75 55 596  2  9 1002 845 89% 1 972331 324153 100%
c
c  seconds   reductions  redundant irredundant
c         MB     restarts      trail       variables
c           level   conflicts     glue           remaining
c
c i  0.85 56 104  2  9 1122 960 95% 8 972331 324144 100%
c i  1.06 57 340  2  9 1390 1205 59% 7 972331 324142 100%
c ]  1.10 57 324  2  9 1423 1235 57% 14 972331 324142 100%
c {  1.10 57 80  2  9 1423 1235 18% 3 972331 324142 100%
c i  1.11 57 89  2 10 1455 1266 20% 3 972331 324141 100%
c i  1.11 57 89  2 10 1456 1266 20% 3 972331 324137 100%
c i  1.12 57 87  2 13 1470 1277 20% 3 972331 324136 100%
c i  1.13 57 84  2 13 1501 1307 19% 3 972331 324135 100%
c i  1.13 57 84  2 13 1502 1307 19% 3 972331 324134 100%
c i  1.16 57 81  2 13 1619 1414 19% 3 972331 324133 100%
c i  1.16 57 79  2 13 1652 1446 19% 3 972331 324132 100%
c i  1.18 57 80  2 13 1673 1466 19% 3 972331 324131 100%
c i  1.23 58 90  2 13 1794 1579 24% 3 972331 324130 100%
c -  1.25 58 91  3 13 1805 1382 24% 3 972267 324130 100%
c i  1.43 58 91  3 30 2093 1652 30% 3 972267 324129 100%
c i  1.50 58 88  3 51 2141 1676 30% 3 972267 324128 100%
c i  1.60 58 87  3 70 2169 1702 29% 3 972267 324127 100%
c i  1.65 58 84  3 95 2218 1741 29% 3 972267 324126 100%
c i  1.73 58 80  3 96 2307 1824 28% 3 972267 324125 100%
c i  1.74 58 79  3 97 2321 1836 28% 3 972267 324124 100%
c
c  seconds  reductions   redundant  irredundant
c         MB    restarts        trail       variables
c          level    conflicts      glue           remaining
c
c i  1.83 58 72  3 104 2470 1975 26% 3 972267 324123 100%
c d  1.91 58 71  3 104 2502 1959 26% 3 972104 324049 100%
c d  1.97 60 71  3 104 2502 1959 26% 3 971972 323994 100%
c 3  2.10 63 71  3 104 2502 6055 26% 3 971972 323994 100%
c t  2.13 63 71  3 104 2502 6054 26% 3 971184 323868 100%
c f  2.61 66 71  3 104 2502 168418 26% 3 971176 322937 99%
c f  2.64 66 71  3 104 2502 168413 26% 3 970860 322937 99%
c u  2.79 66 71  3 104 2502 168986 26% 3 970860 322935 99%
c v  2.85 66 71  3 104 2502 168874 26% 3 970860 322935 99%
c w  3.44 68 71  3 104 2502 173316 26% 3 970824 322826 99%
c d  3.53 67 71  3 104 2502 168258 26% 3 960964 317824 98%
c d  3.61 67 71  3 104 2502 168250 26% 3 960848 317767 98%
c i  3.62 67 71  3 104 2502 168250 26% 3 960848 317767 98%
c i  4.42 67 62  3 207 2943 168680 25% 3 960848 317763 98%
c I  4.45 67 61  3 207 3003 168731 25% 3 960848 317763 98%
c -  4.48 67 61  4 207 3005 2159 25% 3 957395 317763 98%
c i  4.51 67 57  4 207 3227 2368 23% 3 957395 317762 98%
c i  4.60 67 56  4 213 3362 2499 23% 3 957395 317761 98%
c i  4.63 67 56  4 213 3365 2501 23% 3 957395 317760 98%
c i  4.68 67 56  4 222 3396 2525 23% 3 957395 317757 98%
c
c  seconds  reductions   redundant  irredundant
c         MB    restarts        trail       variables
c          level    conflicts      glue           remaining
c
c i  4.69 67 55  4 224 3423 2547 23% 3 957395 317756 98%
c }  4.69 67 55  4 224 3423 2547 23% 3 957395 317756 98%
c [  4.69 67 324  4 224 3423 2547 57% 14 957395 317756 98%
c i  4.74 67 312  4 224 3449 2570 56% 13 957395 317755 98%
c i  5.03 67 123  4 224 4037 3133 42% 7 957395 317754 98%
c -  5.26 68 168  5 225 4506 2967 58% 7 957365 317754 98%
c i  5.38 68 180  5 225 4749 3196 63% 7 957365 317753 98%
c i  5.61 68 192  5 225 5220 3626 69% 7 957365 317752 98%
c i  5.78 68 195  5 226 5532 3910 71% 7 957365 317750 98%
c i  5.96 68 197  5 226 5806 4136 73% 7 957365 317749 98%
c i  5.99 68 197  5 226 5885 4208 73% 7 957365 317748 98%
c ]  6.02 68 198  5 226 5938 4250 74% 7 957365 317748 98%
c {  6.02 68 55  5 226 5938 4250 23% 3 957365 317748 98%
c a  6.22 68 55  5 250 6003 4310 23% 3 957320 317740 98%
c B  6.25 68 55  5 250 6004 4311 23% 3 957320 317740 98%
c i  6.28 68 55  5 260 6028 4334 23% 3 957320 317738 98%
c i  6.51 68 54  5 336 6213 4516 22% 3 957320 317736 98%
c -  6.61 68 53  6 359 6307 3691 22% 3 957310 317736 98%
c i  6.76 68 54  6 370 6443 3815 24% 3 957310 317735 98%
c i  6.90 68 55  6 382 6514 3876 24% 3 957310 317734 98%
c
c  seconds  reductions   redundant  irredundant
c         MB    restarts        trail       variables
c          level    conflicts      glue           remaining
c
c i  7.03 68 54  6 422 6621 3975 24% 3 957310 317733 98%
c i  7.03 68 54  6 422 6627 3980 24% 3 957310 317732 98%
c i  7.58 68 51  6 521 7042 4380 23% 3 957310 317731 98%
c i  7.79 68 51  6 549 7132 4469 23% 3 957310 317730 98%
c i  7.79 68 50  6 551 7146 4481 23% 3 957310 317726 98%
c i  7.94 68 49  6 571 7501 4824 22% 3 957310 317722 98%
c d  8.01 68 49  6 571 7502 4787 22% 3 957223 317677 98%
c d  8.07 68 49  6 571 7502 4787 22% 3 957151 317644 98%
c 3  8.23 70 49  6 571 7502 10503 22% 3 957151 317644 98%
c t  8.26 70 49  6 571 7502 10495 22% 3 955933 317493 98%
c f  8.64 72 49  6 571 7502 175751 22% 3 955913 316797 98%
c u  8.81 72 49  6 571 7502 176055 22% 3 955913 316796 98%
c v  8.87 72 49  6 571 7502 175951 22% 3 955913 316796 98%
c w  9.40 73 49  6 571 7502 176869 22% 3 955643 316649 97%
c d  9.49 70 49  6 571 7502 173199 22% 3 948669 313098 96%
c d  9.56 70 49  6 571 7502 173169 22% 3 948443 312986 96%
c i  9.58 70 49  6 571 7502 173169 22% 3 948443 312986 96%
c i  9.59 70 49  6 571 7527 173192 22% 3 948443 312985 96%
c i  9.59 70 49  6 571 7551 173215 22% 3 948443 312984 96%
c i  9.67 70 48  6 571 7789 173441 22% 3 948443 312983 96%
c
c  seconds  reductions    redundant  irredundant
c         MB    restarts         trail       variables
c          level    conflicts       glue           remaining
c
c - 10.13 70 49  7 595 8408 14414 24% 3 945636 312983 96%
c i 10.52 70 49  7 627 8705 14703 24% 3 945636 312979 96%
c i 10.52 70 49  7 627 8713 14708 24% 3 945636 312978 96%
c i 10.52 70 49  7 627 8721 14714 24% 3 945636 312977 96%
c i 10.54 70 49  7 634 8758 14749 24% 3 945636 312976 96%
c i 10.56 70 48  7 636 8801 14787 23% 3 945636 312974 96%
c i 10.56 70 48  7 636 8828 14812 23% 3 945636 312972 96%
c i 10.86 71 47  7 661 9305 15270 23% 3 945636 312971 96%
c i 11.23 71 45  7 717 9914 15841 23% 3 945636 312970 96%
c i 11.23 71 45  7 717 9919 15845 23% 3 945636 312969 96%
c i 11.28 71 45  7 718 9952 15877 23% 3 945636 312968 96%
c i 11.35 71 45  7 720 9994 15916 23% 3 945636 312967 96%
c a 11.44 71 45  7 720 10004 15923 23% 3 945460 312927 96%
c W 11.74 71 45  7 720 10005 15924 23% 3 945460 312927 96%
c i 11.81 71 45  7 728 10106 16016 23% 3 945460 312926 96%
c i 11.88 71 45  7 740 10134 16042 23% 3 945460 312925 96%
c i 11.93 71 45  7 745 10149 16052 23% 3 945460 312924 96%
c i 12.55 71 46  7 855 10714 16574 23% 3 945460 312923 96%
c i 12.60 71 45  7 880 10789 16646 23% 3 945460 312922 96%
c - 12.63 71 45  8 880 10809 6412 22% 3 945445 312922 96%
c
c  seconds  reductions    redundant  irredundant
c         MB    restarts         trail       variables
c          level     conflicts      glue           remaining
c
c } 12.68 71 44  8 889 10938 6537 22% 3 945445 312922 96%
c [ 12.68 71 198  8 889 10938 6537 74% 7 945445 312922 96%
c i 14.67 73 201  8 890 12229 7759 74% 27 945445 312920 96%
c 2 15.16 73 201  8 890 12501 8018 74% 28 943102 312356 96%
c s 15.26 73 201  8 890 12501 8018 74% 28 940979 312278 96%
c e 17.76 94 201  8 890 12501 8018 74% 28 245241 36418 11%
c s 17.87 94 201  8 890 12501 8018 74% 28 244962 36418 11%
c e 17.94 94 201  8 890 12501 8018 74% 28 242215 35890 11%
c - 18.51 48 221  9 891 13509 1367 78% 26 241790 35890 11%
c d 18.89 48 239  9 891 15003 2724 79% 23 241643 35835 11%
c d 18.90 48 239  9 891 15003 2723 79% 23 241624 35832 11%
c 3 19.01 47 239  9 891 15003 27990 79% 23 241617 35832 11%
c t 19.04 47 239  9 891 15003 27813 79% 23 238967 35794 11%
c f 19.07 49 239  9 891 15003 46277 79% 23 238914 35716 11%
c u 19.14 49 239  9 891 15003 45962 79% 23 238709 35716 11%
c v 19.17 49 239  9 891 15003 45801 79% 23 238709 35716 11%
c w 19.31 52 239  9 891 15003 47128 79% 23 238602 35716 11%
c d 19.34 52 239  9 891 15003 46737 79% 23 238108 35506 11%
c d 19.35 52 239  9 891 15003 46733 79% 23 238105 35505 11%
c i 19.36 52 239  9 891 15003 46733 79% 23 238105 35505 11%
c
c  seconds   reductions     redundant   irredundant
c         MB     restarts          trail        variables
c           level     conflicts        glue          remaining
c
c O 19.36 52 239  9 891 15006 46736 79% 23 238105 35505 11%
c i 19.58 52 198  9 893 16341 47867 72% 18 238104 35504 11%
c ] 19.59 52 198  9 893 16345 47871 72% 18 238104 35504 11%
c { 19.59 52 44  9 893 16345 47871 22% 3 238104 35504 11%
c - 19.62 52 44 10 919 16509 3135 22% 3 237754 35504 11%
c i 19.68 52 44 10 955 16862 3424 23% 3 237754 35502 11%
c i 19.84 52 44 10 1047 17744 4220 23% 3 237754 35501 11%
c i 20.16 52 43 10 1174 19498 5870 23% 3 237754 35500 11%
c - 20.20 52 45 11 1174 19813 5431 25% 3 237743 35500 11%
c B 20.37 52 44 11 1244 21007 6479 25% 3 237609 35500 11%
c - 20.80 52 44 12 1481 23413 7757 26% 4 237608 35500 11%
c d 21.16 52 42 12 1594 25005 9083 25% 4 237379 35410 11%
c d 21.17 52 42 12 1594 25005 9081 25% 4 237338 35399 11%
c 3 21.30 47 42 12 1594 25005 35919 25% 4 237308 35399 11%
c t 21.32 47 42 12 1594 25005 35842 25% 4 237015 35394 11%
c f 21.36 48 42 12 1594 25005 57238 25% 4 237006 35382 11%
c u 21.42 49 42 12 1594 25005 57173 25% 4 237006 35382 11%
c v 21.44 49 42 12 1594 25005 57081 25% 4 237006 35382 11%
c w 21.61 52 42 12 1594 25005 57448 25% 4 234914 35382 11%
c d 21.63 52 42 12 1594 25005 56918 25% 4 234457 35195 11%
c
c  seconds  reductions      redundant  irredundant
c         MB     restarts          trail       variables
c          level      conflicts       glue          remaining
c
c i 21.65 52 42 12 1594 25005 56918 25% 4 234457 35195 11%
c i 21.76 52 42 12 1637 25448 57330 25% 4 234456 35194 11%
c } 21.90 52 42 12 1669 26346 58131 26% 4 234456 35194 11%
c [ 21.90 52 198 12 1669 26346 58131 72% 18 234456 35194 11%
c - 22.05 52 185 13 1669 27314 18900 72% 17 234406 35194 11%
c W 22.23 52 177 13 1670 28009 19489 72% 16 234404 35194 11%
c i 22.29 52 173 13 1670 28360 19797 72% 16 234403 35193 11%
c - 22.67 53 144 14 1672 31514 19148 72% 12 234401 35193 11%
c I 23.42 53 120 14 1675 36011 23001 69% 11 234396 35193 11%
c - 23.42 53 120 15 1675 36015 12441 69% 11 234396 35193 11%
c 2 23.71 53 116 15 1675 37502 13839 68% 11 234353 35193 11%
c s 23.72 53 116 15 1675 37502 13839 68% 11 233863 35193 11%
c e 23.82 44 116 15 1675 37502 13839 68% 11 231770 34111 11%
c 2 23.82 44 116 15 1675 37502 13839 68% 11 231758 34109 11%
c s 23.84 44 116 15 1675 37502 13839 68% 11 231535 34109 11%
c e 23.86 44 116 15 1675 37502 13839 68% 11 231201 34044 10%
c d 23.90 47 116 15 1675 37505 12507 68% 11 231141 34017 10%
c d 23.91 47 116 15 1675 37505 12506 68% 11 231118 34012 10%
c 3 24.04 48 116 15 1675 37505 39372 68% 11 231110 34012 10%
c t 24.07 48 116 15 1675 37505 39310 68% 11 230836 34008 10%
c
c  seconds   reductions      redundant   irredundant
c         MB      restarts          trail        variables
c           level      conflicts        glue          remaining
c
c f 24.10 49 116 15 1675 37505 58077 68% 11 230828 33991 10%
c u 24.17 49 116 15 1675 37505 57884 68% 11 230828 33991 10%
c v 24.20 49 116 15 1675 37505 57756 68% 11 230828 33991 10%
c w 24.37 52 116 15 1675 37505 57946 68% 11 230313 33991 10%
c d 24.39 52 116 15 1675 37505 57474 68% 11 230004 33850 10%
c d 24.40 52 116 15 1675 37505 57451 68% 11 229993 33847 10%
c i 24.41 52 116 15 1675 37505 57451 68% 11 229993 33847 10%
c ] 24.58 52 115 15 1676 39009 58718 65% 11 229993 33847 10%
c { 24.58 52 42 15 1676 39009 58718 26% 4 229993 33847 10%
c - 25.13 53 42 16 2015 40815 17810 26% 4 229939 33847 10%
c B 26.25 53 40 16 2574 45012 21633 26% 4 229935 33847 10%
c - 26.60 53 40 17 2783 45915 15976 26% 4 229934 33847 10%
c - 28.29 53 39 18 3649 51317 18860 26% 4 229930 33847 10%
c d 28.49 53 38 18 3711 52505 19552 25% 4 229609 33723 10%
c d 28.50 53 38 18 3711 52505 19476 25% 4 229579 33711 10%
c 3 28.67 48 38 18 3711 52505 48193 25% 4 229565 33711 10%
c t 28.69 48 38 18 3711 52505 48118 25% 4 229219 33710 10%
c f 28.73 49 38 18 3711 52505 67115 25% 4 229216 33697 10%
c u 28.81 50 38 18 3711 52505 66870 25% 4 229216 33697 10%
c v 28.84 50 38 18 3711 52505 66782 25% 4 229216 33697 10%
c
c  seconds  reductions      redundant  irredundant
c         MB     restarts          trail       variables
c          level      conflicts       glue          remaining
c
c w 29.02 52 38 18 3711 52505 67036 25% 4 228101 33697 10%
c d 29.04 52 38 18 3711 52505 66498 25% 4 227688 33548 10%
c d 29.05 52 38 18 3711 52505 66464 25% 4 227684 33546 10%
c i 29.06 52 38 18 3711 52505 66464 25% 4 227684 33546 10%
c W 29.92 53 37 18 4060 55013 68618 25% 4 227620 33546 10%
c } 30.38 53 37 18 4302 56011 69548 25% 4 227620 33546 10%
c [ 30.38 53 115 18 4302 56011 69548 65% 11 227620 33546 10%
c - 30.61 53 116 19 4302 57020 31670 67% 11 227619 33546 10%
c - 31.95 53 109 20 4307 63020 30489 70% 10 227619 33546 10%
c # 32.45 54 106 20 4308 66015 33205 73% 10 227619 33546 10%
c - 34.18 54 100 21 4309 69320 26553 73% 11 227617 33546 10%
c d 34.44 54 100 21 4310 70005 27097 72% 12 227568 33519 10%
c d 34.45 54 100 21 4310 70005 27087 72% 12 227547 33515 10%
c 3 34.64 48 100 21 4310 70005 58566 72% 12 227531 33515 10%
c t 34.68 48 100 21 4310 70005 57478 72% 12 227227 33515 10%
c f 34.73 49 100 21 4310 70005 73790 72% 12 227227 33472 10%
c u 34.87 50 100 21 4310 70005 73389 72% 12 227227 33472 10%
c v 34.91 50 100 21 4310 70005 73524 72% 12 227227 33472 10%
c w 35.08 53 100 21 4310 70005 74019 72% 12 225632 33469 10%
c d 35.11 53 100 21 4310 70005 73389 72% 12 225194 33304 10%
c
c  seconds   reductions      redundant   irredundant
c         MB      restarts          trail        variables
c           level      conflicts        glue          remaining
c
c d 35.12 53 100 21 4310 70005 73384 72% 12 225190 33303 10%
c i 35.13 53 100 21 4310 70005 73384 72% 12 225190 33303 10%
c 2 36.25 55 97 21 4314 75003 77682 72% 14 225052 33303 10%
c s 36.27 55 97 21 4314 75003 77682 72% 14 224068 33303 10%
c e 36.37 46 97 21 4314 75003 77682 72% 14 217021 31825 10%
c 2 36.37 46 97 21 4314 75003 77682 72% 14 217012 31824 10%
c s 36.39 46 97 21 4314 75003 77682 72% 14 216691 31824 10%
c e 36.42 46 97 21 4314 75003 77682 72% 14 216152 31717 10%
c - 36.75 51 99 22 4314 75922 26508 71% 14 216150 31717 10%
c B 37.26 51 101 22 4315 78017 28379 70% 13 216150 31717 10%
c ] 37.51 51 102 22 4315 78840 29150 70% 13 216150 31717 10%
c { 37.51 51 37 22 4315 78840 29150 25% 4 216150 31717 10%
c i 38.17 52 36 22 4634 80910 31063 25% 4 216149 31716 10%
c - 38.85 52 36 23 5034 82822 25561 25% 4 216144 31716 10%
c d 41.19 53 35 23 6147 90006 32042 26% 4 216057 31675 10%
c d 41.20 53 35 23 6147 90006 32039 26% 4 216046 31669 10%
c 3 41.43 50 35 23 6147 90006 65802 26% 4 216035 31669 10%
c t 41.46 50 35 23 6147 90006 65582 26% 4 215712 31667 10%
c f 41.50 51 35 23 6147 90006 90320 26% 4 215706 31643 10%
c u 41.65 52 35 23 6147 90006 89846 26% 4 215613 31643 10%
c
c  seconds  reductions      redundant  irredundant
c         MB     restarts          trail       variables
c          level      conflicts       glue          remaining
c
c v 41.70 53 35 23 6147 90006 89731 26% 4 215613 31643 10%
c w 41.87 55 35 23 6147 90006 89909 26% 4 214409 31643 10%
c d 41.90 55 35 23 6147 90006 89279 26% 4 213923 31448 10%
c i 41.92 55 35 23 6147 90006 89279 26% 4 213923 31448 10%
c - 41.94 55 35 24 6151 90022 28696 25% 4 213858 31448 10%
c W 42.49 55 35 24 6409 91018 29628 25% 4 213858 31448 10%
c - 44.80 55 35 25 7478 97522 31992 26% 4 213855 31448 10%
c } 47.58 56 34 25 8682 104840 38757 26% 4 213853 31448 10%
c [ 47.58 56 102 25 8682 104840 38757 70% 13 213853 31448 10%
c F 47.63 56 101 25 8682 105020 38920 70% 13 213853 31448 10%
c - 47.70 56 101 26 8682 105322 35510 70% 13 213853 31448 10%
c d 49.67 56 91 26 8687 112506 41808 68% 12 213766 31410 10%
c d 49.68 56 91 26 8687 112506 41807 68% 12 213756 31407 10%
c 3 49.96 50 91 26 8687 112506 78332 68% 12 213744 31407 10%
c t 49.99 50 91 26 8687 112506 78206 68% 12 213541 31407 10%
c f 50.04 51 91 26 8687 112506 99574 68% 12 213541 31398 10%
c u 50.24 53 91 26 8687 112506 99337 68% 12 213541 31398 10%
c v 50.30 53 91 26 8687 112506 99187 68% 12 213541 31398 10%
c w 50.47 55 91 26 8687 112506 100181 68% 12 212239 31398 10%
c d 50.50 55 91 26 8687 112506 99196 68% 12 211874 31264 10%
c
c  seconds  reductions       redundant   irredundant
c         MB     restarts           trail        variables
c          level      conflicts         glue          remaining
c
c i 50.52 55 91 26 8687 112506 99196 68% 12 211874 31264 10%
c - 50.89 55 91 27 8688 113425 43769 68% 12 211844 31264 10%
c B 53.69 56 92 27 8691 120021 49744 65% 14 211843 31264 10%
c - 54.09 56 92 28 8692 121825 38773 65% 14 211843 31264 10%
c 2 55.25 56 91 28 8694 125003 41590 64% 14 211814 31263 10%
c s 55.26 56 91 28 8694 125003 41590 64% 14 210945 31263 10%
c e 55.35 46 91 28 8694 125003 41590 64% 14 209417 30606 9%
c 2 55.35 46 91 28 8694 125003 41590 64% 14 209399 30605 9%
c s 55.37 46 91 28 8694 125003 41590 64% 14 209130 30605 9%
c e 55.39 46 91 28 8694 125003 41590 64% 14 208917 30559 9%
c - 56.73 50 88 29 8696 130525 36153 65% 13 208916 30559 9%
c W 58.40 51 86 29 8696 136022 41316 63% 13 208915 30559 9%
c d 58.98 51 84 29 8696 137508 42623 62% 13 208851 30530 9%
c 3 59.31 50 84 29 8696 137508 79701 62% 13 208826 30530 9%
c t 59.34 50 84 29 8696 137508 79208 62% 13 208470 30529 9%
c f 59.40 52 84 29 8696 137508 107424 62% 13 208470 30522 9%
c u 59.64 53 84 29 8696 137508 107121 62% 13 208470 30522 9%
c v 59.72 53 84 29 8696 137508 106815 62% 13 208470 30522 9%
c w 59.91 55 84 29 8696 137508 107127 62% 13 207265 30516 9%
c d 59.93 55 84 29 8696 137508 106731 62% 13 207034 30418 9%
c
c  seconds  reductions       redundant    irredundant
c         MB     restarts            trail        variables
c          level      conflicts          glue         remaining
c
c d 59.95 55 84 29 8696 137508 106667 62% 13 207000 30413 9%
c i 59.96 55 84 29 8696 137508 106667 62% 13 207000 30413 9%
c - 60.73 56 83 30 8698 139525 51115 61% 13 206955 30413 9%
c ] 60.77 56 83 30 8698 139654 51237 61% 13 206955 30413 9%
c { 60.77 56 34 30 8698 139654 51237 26% 4 206955 30413 9%
c - 64.64 56 34 31 10309 148826 43558 27% 5 206952 30413 9%
c O 66.32 51 34 31 10877 153023 47447 27% 5 206952 30413 9%
c - 68.81 52 34 32 11861 158426 46258 27% 5 206951 30413 9%
c d 71.70 52 34 32 12905 165010 52126 28% 5 206800 30350 9%
c d 71.72 52 34 32 12905 165010 52125 28% 5 206779 30344 9%
c 3 72.11 50 34 32 12905 165010 95938 28% 5 206771 30344 9%
c t 72.14 50 34 32 12905 165010 95823 28% 5 206552 30344 9%
c f 72.23 52 34 32 12905 165010 131378 28% 5 206552 30318 9%
c u 72.50 54 34 32 12905 165010 130589 28% 5 206552 30318 9%
c v 72.59 54 34 32 12905 165010 130429 28% 5 206552 30318 9%
c w 72.79 57 34 32 12905 165010 130864 28% 5 205264 30317 9%
c d 72.81 57 34 32 12905 165010 129243 28% 5 204795 30108 9%
c d 72.83 57 34 32 12905 165010 129241 28% 5 204791 30106 9%
c i 72.84 57 34 32 12905 165010 129241 28% 5 204791 30106 9%
c - 74.39 57 34 33 13485 168326 54364 28% 5 204735 30106 9%
c
c  seconds  reductions        redundant  irredundant
c         MB     restarts            trail       variables
c          level       conflicts        glue         remaining
c
c B 75.41 51 34 33 13788 171024 56857 28% 5 204734 30106 9%
c } 77.73 52 34 33 14692 176655 61950 28% 5 204734 30106 9%
c [ 77.73 52 83 33 14692 176655 61950 61% 13 204734 30106 9%
c - 78.44 52 81 34 14693 178526 55847 61% 13 204734 30106 9%
c 2 82.02 53 74 34 14698 187504 63827 59% 13 204655 30106 9%
c s 82.03 53 74 34 14698 187504 63827 59% 13 203810 30106 9%
c e 82.12 46 74 34 14698 187504 63827 59% 13 201712 29368 9%
c 2 82.12 46 74 34 14698 187504 63827 59% 13 201691 29366 9%
c s 82.14 46 74 34 14698 187504 63827 59% 13 201423 29366 9%
c e 82.17 46 74 34 14698 187504 63827 59% 13 201246 29317 9%
c - 82.74 50 74 35 14698 189026 50231 59% 13 201245 29317 9%
c W 83.30 50 73 35 14699 190027 51129 58% 13 201245 29317 9%
c d 85.11 51 71 35 14703 195011 55250 57% 13 201217 29297 9%
c 3 85.60 50 71 35 14703 195011 99724 57% 13 201201 29297 9%
c t 85.63 50 71 35 14703 195011 98863 57% 13 200886 29296 9%
c f 85.73 53 71 35 14703 195011 139774 57% 13 200882 29269 9%
c u 86.10 54 71 35 14703 195011 139044 57% 13 200809 29269 9%
c v 86.20 55 71 35 14703 195011 138804 57% 13 200809 29269 9%
c w 86.42 57 71 35 14703 195011 139366 57% 13 199863 29269 9%
c d 86.45 57 71 35 14703 195011 138773 57% 13 199522 29130 9%
c
c  seconds  reductions        redundant    irredundant
c         MB     restarts             trail        variables
c          level       conflicts          glue         remaining
c
c d 86.46 57 71 35 14703 195011 138770 57% 13 199518 29129 9%
c i 86.47 57 71 35 14703 195011 138770 57% 13 199518 29129 9%
c - 88.34 57 69 36 14705 199826 53178 56% 13 199438 29129 9%
c I 91.65 51 63 36 14707 210029 62264 52% 13 199437 29129 9%
c i 91.72 52 62 36 14707 210247 62407 52% 13 199437 29093 9%
c - 91.93 52 62 37 14708 210927 52019 52% 13 199260 29093 9%
c i 93.19 52 60 37 14710 214269 55004 51% 12 199260 29000 9%
c i 93.33 52 60 37 14710 214636 55237 50% 12 199260 28605 9%
c i 93.38 52 59 37 14710 214760 55287 50% 12 199260 28440 9%
c i 93.40 52 59 37 14711 214824 55319 50% 12 199260 28436 9%
c i 93.41 52 59 37 14711 214825 55319 50% 12 199260 28208 9%
c i 93.41 52 59 37 14711 214826 55319 50% 12 199260 28203 9%
c i 93.41 52 59 37 14711 214828 55320 50% 12 199260 28198 9%
c i 93.41 52 59 37 14711 214834 55323 50% 12 199260 27010 8%
c ] 93.41 52 59 37 14711 214836 55323 50% 12 199260 21485 7%
c 0 93.41 52 34 37 14711 214836 55323 28% 5 199260 21485 7%
c
c ---- [ result ] ------------------------------------------------------------
c
s UNSATISFIABLE
c
c ---- [ profiling ] ---------------------------------------------------------
c
c          77.00   82.43 %  search
c          38.59   41.31 %  focused
c          38.41   41.12 %  stable
c          16.15   17.29 %  simplify
c          11.43   12.23 %  probe
c           5.49    5.88 %  vivify
c           3.51    3.75 %  eliminate
c           2.62    2.80 %  ternary
c           1.52    1.63 %  substitute
c           1.44    1.54 %  failed
c           0.68    0.73 %  walking
c           0.63    0.67 %  reduce
c           0.54    0.58 %  autarky
c           0.36    0.38 %  transitive
c           0.26    0.28 %  parse
c =============================================
c          93.41  100.00 %  total
c
c ---- [ statistics ] --------------------------------------------------------
c
c conflicts:                           214836             2299.88 per second
c decisions:                           946793                4.41 per conflict
c propagations:                     563877464          6036460    per second
c reductions:                              37             5806    interval
c rephased:                                20            10742    interval
c restarts:                             14711               14.60 interval
c
c ---- [ resources ] ---------------------------------------------------------
c
c maximum-resident-set-size:        105840640 bytes        101 MB
c process-time:                         1m 33s              93.41 seconds
c
c ---- [ shutting down ] -----------------------------------------------------
c
c exit 20

SAT solver OK

VALID
c array.sh: end:      Tue Feb 16 22:31:51 CET 2021
